<number of tasks>
20

<cycle time>
1000

<order strength>
0,189


<task times>
1 154
2 167
3 23
4 201
5 75
6 65
7 80
8 263
9 106
10 105
11 82
12 92
13 180
14 74
15 170
16 184
17 270
18 208
19 148
20 161

<precedence relations>
1,6
2,7
4,8
4,10
5,9
6,11
7,12
10,13
10,14
11,15
12,16
13,18
14,17
14,19
15,20
16,20

<end>
